NAME          DCAP_2_4_3_500_SS31
ROWS
 N  OBJ
 L  CON1
 L  CON2
 L  CON3
 L  CON4
 L  CON5
 L  CON6
 L  CON7
 L  CON8
 L  CON9
 L  CON10
 L  CON11
 L  CON12
 E  CON13
 E  CON14
 E  CON15
 E  CON16
 E  CON17
 E  CON18
 E  CON19
 E  CON20
 E  CON21
 E  CON22
 E  CON23
 E  CON24
COLUMNS
    x[1,1]    OBJ       6.180167      CON1      1.000000    
    x[1,1]    CON7      -1.000000     CON8      -1.000000   
    x[1,1]    CON9      -1.000000   
    x[1,2]    OBJ       6.563535      CON2      1.000000    
    x[1,2]    CON8      -1.000000     CON9      -1.000000   
    x[1,3]    OBJ       7.443064      CON3      1.000000    
    x[1,3]    CON9      -1.000000   
    x[2,1]    OBJ       6.732585      CON4      1.000000    
    x[2,1]    CON10     -1.000000     CON11     -1.000000   
    x[2,1]    CON12     -1.000000   
    x[2,2]    OBJ       5.039546      CON5      1.000000    
    x[2,2]    CON11     -1.000000     CON12     -1.000000   
    x[2,3]    OBJ       6.054841      CON6      1.000000    
    x[2,3]    CON12     -1.000000   
    MARKER    'MARKER'                'INTORG'
    u[1,1]    OBJ       48.076654     CON1      -1.000000   
    u[1,2]    OBJ       20.066487     CON2      -1.000000   
    u[1,3]    OBJ       32.230043     CON3      -1.000000   
    u[2,1]    OBJ       49.996186     CON4      -1.000000   
    u[2,2]    OBJ       49.466655     CON5      -1.000000   
    u[2,3]    OBJ       27.484319     CON6      -1.000000   
    y[1,1,1]  OBJ       6.168622      CON7      1.375237    
    y[1,1,1]  CON13     1.000000    
    y[1,1,2]  OBJ       6.776445      CON8      1.000175    
    y[1,1,2]  CON14     1.000000    
    y[1,1,3]  OBJ       8.884414      CON9      1.207123    
    y[1,1,3]  CON15     1.000000    
    y[1,2,1]  OBJ       9.100161      CON7      1.209513    
    y[1,2,1]  CON16     1.000000    
    y[1,2,2]  OBJ       7.344102      CON8      0.997025    
    y[1,2,2]  CON17     1.000000    
    y[1,2,3]  OBJ       5.284235      CON9      1.190510    
    y[1,2,3]  CON18     1.000000    
    y[1,3,1]  OBJ       7.648580      CON7      1.077504    
    y[1,3,1]  CON19     1.000000    
    y[1,3,2]  OBJ       5.323093      CON8      1.416458    
    y[1,3,2]  CON20     1.000000    
    y[1,3,3]  OBJ       7.862244      CON9      1.443378    
    y[1,3,3]  CON21     1.000000    
    y[1,4,1]  OBJ       6.517687      CON7      1.068317    
    y[1,4,1]  CON22     1.000000    
    y[1,4,2]  OBJ       8.312209      CON8      0.873633    
    y[1,4,2]  CON23     1.000000    
    y[1,4,3]  OBJ       6.966103      CON9      0.622653    
    y[1,4,3]  CON24     1.000000    
    y[2,1,1]  OBJ       8.887482      CON10     1.375237    
    y[2,1,1]  CON13     1.000000    
    y[2,1,2]  OBJ       8.767097      CON11     1.000175    
    y[2,1,2]  CON14     1.000000    
    y[2,1,3]  OBJ       6.819688      CON12     1.207123    
    y[2,1,3]  CON15     1.000000    
    y[2,2,1]  OBJ       7.167205      CON10     1.209513    
    y[2,2,1]  CON16     1.000000    
    y[2,2,2]  OBJ       6.033206      CON11     0.997025    
    y[2,2,2]  CON17     1.000000    
    y[2,2,3]  OBJ       9.637501      CON12     1.190510    
    y[2,2,3]  CON18     1.000000    
    y[2,3,1]  OBJ       7.361970      CON10     1.077504    
    y[2,3,1]  CON19     1.000000    
    y[2,3,2]  OBJ       8.454504      CON11     1.416458    
    y[2,3,2]  CON20     1.000000    
    y[2,3,3]  OBJ       5.594816      CON12     1.443378    
    y[2,3,3]  CON21     1.000000    
    y[2,4,1]  OBJ       6.497739      CON10     1.068317    
    y[2,4,1]  CON22     1.000000    
    y[2,4,2]  OBJ       8.077098      CON11     0.873633    
    y[2,4,2]  CON23     1.000000    
    y[2,4,3]  OBJ       7.157125      CON12     0.622653    
    y[2,4,3]  CON24     1.000000    
    z[1,1]    OBJ       569.201420    CON13     1.000000    
    z[1,2]    OBJ       920.916449    CON14     1.000000    
    z[1,3]    OBJ       934.861776    CON15     1.000000    
    z[2,1]    OBJ       718.007781    CON16     1.000000    
    z[2,2]    OBJ       606.718871    CON17     1.000000    
    z[2,3]    OBJ       910.500712    CON18     1.000000    
    z[3,1]    OBJ       515.572147    CON19     1.000000    
    z[3,2]    OBJ       554.044895    CON20     1.000000    
    z[3,3]    OBJ       650.195222    CON21     1.000000    
    z[4,1]    OBJ       662.703175    CON22     1.000000    
    z[4,2]    OBJ       737.791805    CON23     1.000000    
    z[4,3]    OBJ       925.616014    CON24     1.000000    
    MARKER    'MARKER'                 'INTEND'
RHS
    RHS       CON1      -0.000000     CON2      -0.000000   
    RHS       CON3      -0.000000     CON4      -0.000000   
    RHS       CON5      -0.000000     CON6      -0.000000   
    RHS       CON7      -0.000000     CON8      -0.000000   
    RHS       CON9      -0.000000     CON10     -0.000000   
    RHS       CON11     -0.000000     CON12     -0.000000   
    RHS       CON13     1.000000      CON14     1.000000    
    RHS       CON15     1.000000      CON16     1.000000    
    RHS       CON17     1.000000      CON18     1.000000    
    RHS       CON19     1.000000      CON20     1.000000    
    RHS       CON21     1.000000      CON22     1.000000    
    RHS       CON23     1.000000      CON24     1.000000    
BOUNDS
 BV BOUND     u[1,1]  
 BV BOUND     u[1,2]  
 BV BOUND     u[1,3]  
 BV BOUND     u[2,1]  
 BV BOUND     u[2,2]  
 BV BOUND     u[2,3]  
 BV BOUND     y[1,1,1]
 BV BOUND     y[1,1,2]
 BV BOUND     y[1,1,3]
 BV BOUND     y[1,2,1]
 BV BOUND     y[1,2,2]
 BV BOUND     y[1,2,3]
 BV BOUND     y[1,3,1]
 BV BOUND     y[1,3,2]
 BV BOUND     y[1,3,3]
 BV BOUND     y[1,4,1]
 BV BOUND     y[1,4,2]
 BV BOUND     y[1,4,3]
 BV BOUND     y[2,1,1]
 BV BOUND     y[2,1,2]
 BV BOUND     y[2,1,3]
 BV BOUND     y[2,2,1]
 BV BOUND     y[2,2,2]
 BV BOUND     y[2,2,3]
 BV BOUND     y[2,3,1]
 BV BOUND     y[2,3,2]
 BV BOUND     y[2,3,3]
 BV BOUND     y[2,4,1]
 BV BOUND     y[2,4,2]
 BV BOUND     y[2,4,3]
 BV BOUND     z[1,1]  
 BV BOUND     z[1,2]  
 BV BOUND     z[1,3]  
 BV BOUND     z[2,1]  
 BV BOUND     z[2,2]  
 BV BOUND     z[2,3]  
 BV BOUND     z[3,1]  
 BV BOUND     z[3,2]  
 BV BOUND     z[3,3]  
 BV BOUND     z[4,1]  
 BV BOUND     z[4,2]  
 BV BOUND     z[4,3]  
ENDATA
